examples/problems/Promedus/30/Promedus_30.td
c read Graph
c width = 295
c time = 3 ms
c width = 69
c time = 64 ms
c width = 6
c time = 90 ms
c width = 6
c time = 299907 ms
s td 238 7 306
b 1 32 234
b 2 120 234 235
b 3 59 235 236
b 4 39 241
b 5 33 241 242
b 6 94 284
b 7 8 284 285
b 8 129 285 286
b 9 101 286 287
b 10 20 287 288
b 11 72 288 289
b 12 77 289 290
b 13 105 290 291
b 14 35 181
b 15 95 181 182
b 16 83 182 183
b 17 53 183 184
b 18 31 295
b 19 121 295 296
b 20 41 296 297
b 21 135 297 298
b 22 85 298 299
b 23 47 87 306
b 24 136 305 306
b 25 12 304 305
b 26 127 303 304
b 27 109 133 283
b 28 69 282 283
b 29 29 281 282
b 30 146 280 281
b 31 128 279 280
b 32 70 211
b 33 63 147
b 34 108 132
b 35 19 110 180
b 36 6 179 180
b 37 73 178 179
b 38 42 177 178
b 39 23 112 210
b 40 57 209 210
b 41 67 208 209
b 42 103 207 208
b 43 62 206 207
b 44 99 205 206
b 45 114 204 205
b 46 2 15 172 173
b 47 21 254 255 292
b 48 89 188 189 293
b 49 90 189 271 272
b 50 100 188 249 250
b 51 49 145 176 232
b 52 48 152 153 214
b 53 48 153 154 214
b 54 116 161 162 163
b 55 13 165 166 167
b 56 15 172 173 174
b 57 49 175 176 232
b 58 48 154 214 215
b 59 37 188 249 250
b 60 37 188 250 252
b 61 141 252 253 254
b 62 49 257 258 262
b 63 48 262 263 271
b 64 189 271 272 276
b 65 37 108 276 277
b 66 36 174 175 231 232
b 67 49 174 175 231 232
b 68 139 154 155 215 216
b 69 48 154 155 215 216
b 70 115 155 156 216 217
b 71 48 155 156 216 217
b 72 48 108 156 157 217
b 73 48 108 157 217 218
b 74 76 157 158 218 219
b 75 37 188 189 252 293
b 76 37 189 252 292 293
b 77 141 252 254 255 292
b 78 37 108 189 271 276
b 79 13 165 167 225 226
b 80 25 164 165 224 225
b 81 30 167 168 226 227
b 82 58 163 164 223 224
b 83 98 168 169 227 228
b 84 22 169 170 228 229
b 85 82 170 171 229 230
b 86 116 161 163 222 223
b 87 50 160 161 221 222
b 88 56 159 160 220 221
b 89 15 172 174 255 256
b 90 37 108 189 252 271 292
b 91 49 174 231 257 262
b 92 48 108 157 158 218 219
b 93 159 160 161 220 221 222
b 94 159 161 163 220 222 223
b 95 159 163 164 220 223 224
b 96 159 164 165 220 224 225
b 97 159 165 167 220 225 226
b 98 159 167 168 220 226 227
b 99 159 168 169 220 227 228
b 100 159 169 170 220 228 229
b 101 159 170 171 220 229 230
b 102 108 141 252 255 271 292
b 103 48 108 141 158 159 219
b 104 48 108 141 159 219 220
b 105 51 172 174 255 256 257
b 106 51 171 172 174 255 257
b 107 51 174 230 231 257 262
b 108 51 171 174 230 255 257 262
b 109 48 108 141 255 262 271
b 110 48 108 141 159 220 255 262
b 111 159 171 220 230 255 262
b 112 171 220 230 255 262
b 113 11 275 276
b 114 272 275 276
b 115 106 274 275
b 116 272 274 275
b 117 134 273 274
b 118 272 273 274
b 119 38 272 273
b 120 140 270 271
b 121 263 270 271
b 122 61 269 270
b 123 263 269 270
b 124 117 268 269
b 125 263 268 269
b 126 10 267 268
b 127 263 267 268
b 128 81 266 267
b 129 263 266 267
b 130 97 265 266
b 131 263 265 266
b 132 79 264 265
b 133 263 264 265
b 134 131 263 264
b 135 78 261 262
b 136 258 261 262
b 137 113 260 261
b 138 258 260 261
b 139 102 259 260
b 140 258 259 260
b 141 124 258 259
b 142 65 253 254
b 143 7 251 252
b 144 250 251 252
b 145 125 250 251
b 146 3 173 174
b 147 40 166 167
b 148 111 162 163
b 149 96 153 154
b 150 150 152 214
b 151 45 149 150 213
b 152 45 150 213 214
b 153 46 151 152
b 154 150 151 152
b 155 144 150 151
b 156 88 148 149 212
b 157 88 149 212 213
b 158 130 148 212
b 159 145 176 177
b 160 130 211 212
b 161 130 147 148
b 162 92 277 278
b 163 108 277 278
b 164 108 278 279
b 165 27 187 188
b 166 100 187 188
b 167 100 186 187
b 168 118 186 187
b 169 52 185 186
b 170 100 185 186
b 171 100 184 185
b 172 9 202 203
b 173 90 202 203
b 174 90 203 204
b 175 54 201 202
b 176 90 201 202
b 177 90 200 201
b 178 137 200 201
b 179 60 199 200
b 180 90 199 200
b 181 71 198 199
b 182 90 198 199
b 183 90 197 198
b 184 119 197 198
b 185 90 196 197
b 186 107 196 197
b 187 24 195 196
b 188 90 195 196
b 189 75 194 195
b 190 90 194 195
b 191 90 193 194
b 192 122 193 194
b 193 66 192 193
b 194 90 192 193
b 195 28 191 192
b 196 90 191 192
b 197 84 190 191
b 198 90 190 191
b 199 16 189 190
b 200 90 189 190
b 201 55 89 294
b 202 89 293 294
b 203 138 293 294
b 204 37 248 249
b 205 80 248 249
b 206 37 247 248
b 207 86 247 248
b 208 37 246 247
b 209 143 246 247
b 210 37 245 246
b 211 44 245 246
b 212 34 244 245
b 213 37 244 245
b 214 37 243 244
b 215 123 243 244
b 216 37 91 243
b 217 91 242 243
b 218 14 239 240
b 219 37 239 240
b 220 37 68 240
b 221 37 91 239
b 222 91 238 239
b 223 21 291 292
b 224 2 15 300
b 225 15 299 300
b 226 2 301 302
b 227 26 301 302
b 228 2 302 303
b 229 2 300 301
b 230 142 300 301
b 231 18 237 238
b 232 1 236 237
b 233 43 74
b 234 104 233
b 235 4 43 233
b 236 5
b 237 17 64
b 238 93 126
1 2
1 233
1 236
1 237
1 238
2 3
3 232
4 5
5 217
6 7
7 8
8 9
9 10
10 11
11 12
12 13
13 223
14 15
15 16
16 17
17 171
18 19
19 20
20 21
21 22
22 225
23 24
24 25
25 26
26 228
27 28
28 29
29 30
30 31
31 164
32 160
33 161
34 65
35 36
36 37
37 38
38 159
39 40
40 41
41 42
42 43
43 44
44 45
45 174
46 224
46 56
47 223
47 77
48 202
48 75
49 200
49 64
50 166
50 59
51 159
51 57
52 150
52 53
53 149
53 58
54 148
54 86
55 147
55 79
56 146
56 89
57 67
58 69
59 204
59 60
60 144
60 75
61 142
61 77
62 136
62 91
63 121
63 109
64 114
64 78
65 163
65 78
66 67
67 91
68 69
69 71
70 71
71 72
72 73
73 92
74 92
75 76
76 90
77 102
78 90
79 97
80 96
81 98
82 95
83 99
84 100
85 101
86 94
87 93
88 93
89 105
90 102
91 107
92 103
93 94
94 95
95 96
96 97
97 98
98 99
99 100
100 101
101 111
102 109
103 104
104 110
105 106
106 108
107 108
108 112
109 110
110 111
111 112
113 114
114 116
115 116
116 118
117 118
118 119
120 121
121 123
122 123
123 125
124 125
125 127
126 127
127 129
128 129
129 131
130 131
131 133
132 133
133 134
135 136
136 138
137 138
138 140
139 140
140 141
143 144
144 145
150 154
150 152
151 157
151 152
153 154
154 155
156 158
156 157
158 161
158 160
162 163
163 164
165 166
166 167
167 170
167 168
169 170
170 171
172 173
173 176
173 174
175 176
176 177
177 180
177 178
179 180
180 182
181 182
182 183
183 185
183 184
185 188
185 186
187 188
188 190
189 190
190 191
191 194
191 192
193 194
194 196
195 196
196 198
197 198
198 200
199 200
201 202
202 203
204 206
204 205
206 208
206 207
208 210
208 209
210 213
210 211
212 213
213 214
214 216
214 215
216 221
216 217
218 219
219 221
219 220
221 222
222 231
224 229
224 225
226 229
226 228
226 227
229 230
231 232
233 235
234 235
