examples/problems/Promedus/30/Promedus_30.uai
MARKOV
306
2 2 2 2 2 2 2 2 2 2 2 2 2 2 2 2 2 2 2 2 2 2 2 2 2 2 2 2 2 2 2 2 2 2 2 2 2 2 2 2 2 2 2 2 2 2 2 2 2 2 2 2 2 2 2 2 2 2 2 2 2 2 2 2 2 2 2 2 2 2 2 2 2 2 2 2 2 2 2 2 2 2 2 2 2 2 2 2 2 2 2 2 2 2 2 2 2 2 2 2 2 2 2 2 2 2 2 2 2 2 2 2 2 2 2 2 2 2 2 2 2 2 2 2 2 2 2 2 2 2 2 2 2 2 2 2 2 2 2 2 2 2 2 2 2 2 2 2 2 2 2 2 2 2 2 2 2 2 2 2 2 2 2 2 2 2 2 2 2 2 2 2 2 2 2 2 2 2 2 2 2 2 2 2 2 2 2 2 2 2 2 2 2 2 2 2 2 2 2 2 2 2 2 2 2 2 2 2 2 2 2 2 2 2 2 2 2 2 2 2 2 2 2 2 2 2 2 2 2 2 2 2 2 2 2 2 2 2 2 2 2 2 2 2 2 2 2 2 2 2 2 2 2 2 2 2 2 2 2 2 2 2 2 2 2 2 2 2 2 2 2 2 2 2 2 2 2 2 2 2 2 2 2 2 2 2 2 2 2 2 2 2 2 2 2 2 2 2 2 2 2 2 2 2 2 2 
306
3 305 46 86 
3 304 135 305 
3 303 11 304 
3 302 126 303 
3 301 1 302 
3 300 25 301 
3 299 141 300 
3 298 14 299 
3 297 84 298 
3 296 134 297 
3 295 40 296 
3 294 120 295 
2 30 294 
2 125 92 
3 293 88 54 
3 292 137 293 
3 291 36 292 
3 290 20 291 
3 289 104 290 
3 288 76 289 
3 287 71 288 
3 286 19 287 
3 285 100 286 
3 284 128 285 
3 283 7 284 
2 93 283 
3 282 132 108 
3 281 68 282 
3 280 28 281 
3 279 145 280 
3 278 127 279 
3 277 107 278 
3 276 91 277 
3 275 36 276 
3 274 10 275 
3 273 105 274 
3 272 133 273 
3 271 37 272 
3 270 89 271 
3 269 139 270 
3 268 60 269 
3 267 116 268 
3 266 9 267 
3 265 80 266 
3 264 96 265 
3 263 78 264 
3 262 130 263 
3 261 47 262 
3 260 77 261 
3 259 112 260 
3 258 101 259 
3 257 123 258 
3 256 48 257 
3 255 50 256 
3 254 14 255 
3 253 20 254 
3 252 64 253 
3 251 140 252 
3 250 6 251 
3 249 124 250 
3 248 99 249 
3 247 79 248 
3 246 85 247 
3 245 142 246 
3 244 43 245 
3 243 33 244 
3 242 122 243 
3 241 90 242 
3 240 32 241 
2 38 240 
3 239 36 67 
3 238 13 239 
3 237 90 238 
3 236 17 237 
3 235 0 236 
3 234 58 235 
3 233 119 234 
2 31 233 
2 73 42 
2 63 16 
3 232 3 42 
2 103 232 
3 231 48 144 
3 230 35 231 
3 229 50 230 
3 228 81 229 
3 227 21 228 
3 226 97 227 
3 225 29 226 
3 224 12 225 
3 223 24 224 
3 222 57 223 
3 221 115 222 
3 220 49 221 
3 219 55 220 
3 218 140 219 
3 217 75 218 
3 216 107 217 
3 215 114 216 
3 214 138 215 
3 213 47 214 
3 212 44 213 
3 211 87 212 
3 210 129 211 
2 69 210 
2 131 107 
3 209 111 22 
3 208 56 209 
3 207 66 208 
3 206 102 207 
3 205 61 206 
3 204 98 205 
3 203 113 204 
3 202 89 203 
3 201 8 202 
3 200 53 201 
3 199 136 200 
3 198 59 199 
3 197 70 198 
3 196 118 197 
3 195 106 196 
3 194 23 195 
3 193 74 194 
3 192 121 193 
3 191 65 192 
3 190 27 191 
3 189 83 190 
3 188 15 189 
3 187 88 188 
3 186 26 187 
3 185 117 186 
3 184 51 185 
3 183 99 184 
3 182 52 183 
3 181 82 182 
3 180 94 181 
2 34 180 
3 179 18 109 
3 178 5 179 
3 177 72 178 
3 176 41 177 
3 175 144 176 
3 174 48 175 
3 173 35 174 
3 172 2 173 
3 171 1 172 
3 170 50 171 
3 169 81 170 
3 168 21 169 
3 167 97 168 
3 166 29 167 
3 165 39 166 
3 164 12 165 
3 163 24 164 
3 162 57 163 
3 161 110 162 
3 160 115 161 
3 159 49 160 
3 158 55 159 
3 157 140 158 
3 156 75 157 
3 155 107 156 
3 154 114 155 
3 153 138 154 
3 152 95 153 
3 151 47 152 
3 150 45 151 
3 149 143 150 
3 148 44 149 
3 147 87 148 
3 146 129 147 
2 62 146 
1 108 
1 72 
1 61 
1 113 
1 118 
1 28 
1 106 
1 127 
1 121 
1 83 
1 49 
1 137 
1 67 
1 51 
1 105 
1 135 
1 5 
1 98 
1 37 
1 25 
1 42 
1 60 
1 76 
1 9 
1 86 
1 74 
1 0 
1 54 
1 88 
1 138 
1 130 
1 47 
1 77 
1 143 
1 101 
1 7 
1 109 
1 111 
1 48 
1 126 
1 141 
1 136 
1 50 
1 104 
1 39 
1 24 
1 46 
1 92 
1 26 
1 114 
1 6 
1 124 
1 99 
1 85 
1 3 
1 22 
1 18 
1 102 
1 43 
1 70 
1 84 
1 81 
1 16 
1 75 
1 56 
1 132 
1 41 
1 68 
1 35 
1 53 
1 145 
1 134 
1 19 
1 29 
1 12 
1 57 
1 110 
1 107 
1 91 
1 36 
1 10 
1 95 
1 120 
1 87 
1 129 
1 133 
1 89 
1 119 
1 59 
1 139 
1 21 
1 116 
1 100 
1 80 
1 97 
1 23 
1 96 
1 78 
1 112 
1 71 
1 94 
1 123 
1 13 
1 144 
1 58 
1 2 
1 14 
1 20 
1 40 
1 11 
1 65 
1 27 
1 64 
1 55 
1 140 
1 117 
1 79 
1 45 
1 142 
1 66 
1 8 
1 33 
1 1 
1 128 
1 115 
1 15 
1 122 
1 90 
1 17 
1 52 
1 44 
1 32 
1 82 
1 4

8
1.00000000000000 0.80000000000000 0.50000000000000 0.40000000000000 0.00000000000000 0.20000000000000 0.50000000000000 0.60000000000000 
8
1.00000000000000 0.00000000000000 0.01000000000000 0.00000000000000 0.00000000000000 1.00000000000000 0.99000000000000 1.00000000000000 
8
1.00000000000000 0.00000000000000 0.09000000000000 0.00000000000000 0.00000000000000 1.00000000000000 0.91000000000000 1.00000000000000 
8
1.00000000000000 0.00000000000000 0.09000000000000 0.00000000000000 0.00000000000000 1.00000000000000 0.91000000000000 1.00000000000000 
8
1.00000000000000 0.00000000000000 0.50000000000000 0.00000000000000 0.00000000000000 1.00000000000000 0.50000000000000 1.00000000000000 
8
1.00000000000000 0.00000000000000 0.50000000000000 0.00000000000000 0.00000000000000 1.00000000000000 0.50000000000000 1.00000000000000 
8
1.00000000000000 0.00000000000000 0.09000000000000 0.00000000000000 0.00000000000000 1.00000000000000 0.91000000000000 1.00000000000000 
8
1.00000000000000 0.00000000000000 0.89000000000000 0.00000000000000 0.00000000000000 1.00000000000000 0.11000000000000 1.00000000000000 
8
1.00000000000000 0.00000000000000 0.90000000000000 0.00000000000000 0.00000000000000 1.00000000000000 0.10000000000000 1.00000000000000 
8
1.00000000000000 0.00000000000000 0.09000000000000 0.00000000000000 0.00000000000000 1.00000000000000 0.91000000000000 1.00000000000000 
8
1.00000000000000 0.00000000000000 0.80000000000000 0.00000000000000 0.00000000000000 1.00000000000000 0.20000000000000 1.00000000000000 
8
1.00000000000000 0.00000000000000 0.50000000000000 0.00000000000000 0.00000000000000 1.00000000000000 0.50000000000000 1.00000000000000 
4
0.97000000000000 0.00000000000000 0.03000000000000 1.00000000000000 
4
1.00000000000000 0.20000000000000 0.00000000000000 0.80000000000000 
8
1.00000000000000 0.50000000000000 0.50000000000000 0.25000000000000 0.00000000000000 0.50000000000000 0.50000000000000 0.75000000000000 
8
1.00000000000000 0.00000000000000 0.50000000000000 0.00000000000000 0.00000000000000 1.00000000000000 0.50000000000000 1.00000000000000 
8
1.00000000000000 0.00000000000000 0.50000000000000 0.00000000000000 0.00000000000000 1.00000000000000 0.50000000000000 1.00000000000000 
8
1.00000000000000 0.00000000000000 0.50000000000000 0.00000000000000 0.00000000000000 1.00000000000000 0.50000000000000 1.00000000000000 
8
1.00000000000000 0.00000000000000 0.50000000000000 0.00000000000000 0.00000000000000 1.00000000000000 0.50000000000000 1.00000000000000 
8
1.00000000000000 0.00000000000000 0.90000000000000 0.00000000000000 0.00000000000000 1.00000000000000 0.10000000000000 1.00000000000000 
8
1.00000000000000 0.00000000000000 0.50000000000000 0.00000000000000 0.00000000000000 1.00000000000000 0.50000000000000 1.00000000000000 
8
1.00000000000000 0.00000000000000 0.50000000000000 0.00000000000000 0.00000000000000 1.00000000000000 0.50000000000000 1.00000000000000 
8
1.00000000000000 0.00000000000000 0.10000000000000 0.00000000000000 0.00000000000000 1.00000000000000 0.90000000000000 1.00000000000000 
8
1.00000000000000 0.00000000000000 0.50000000000000 0.00000000000000 0.00000000000000 1.00000000000000 0.50000000000000 1.00000000000000 
8
1.00000000000000 0.00000000000000 0.50000000000000 0.00000000000000 0.00000000000000 1.00000000000000 0.50000000000000 1.00000000000000 
4
0.97000000000000 0.00000000000000 0.03000000000000 1.00000000000000 
8
1.00000000000000 0.90000000000000 0.90000000000000 0.81000000000000 0.00000000000000 0.10000000000000 0.10000000000000 0.19000000000000 
8
1.00000000000000 0.00000000000000 0.30000000000000 0.00000000000000 0.00000000000000 1.00000000000000 0.70000000000000 1.00000000000000 
8
1.00000000000000 0.00000000000000 0.90000000000000 0.00000000000000 0.00000000000000 1.00000000000000 0.10000000000000 1.00000000000000 
8
1.00000000000000 0.00000000000000 0.30000000000000 0.00000000000000 0.00000000000000 1.00000000000000 0.70000000000000 1.00000000000000 
8
1.00000000000000 0.00000000000000 0.30000000000000 0.00000000000000 0.00000000000000 1.00000000000000 0.70000000000000 1.00000000000000 
8
1.00000000000000 0.00000000000000 0.50000000000000 0.00000000000000 0.00000000000000 1.00000000000000 0.50000000000000 1.00000000000000 
8
1.00000000000000 0.00000000000000 0.30000000000000 0.00000000000000 0.00000000000000 1.00000000000000 0.70000000000000 1.00000000000000 
8
1.00000000000000 0.00000000000000 0.50000000000000 0.00000000000000 0.00000000000000 1.00000000000000 0.50000000000000 1.00000000000000 
8
1.00000000000000 0.00000000000000 0.90000000000000 0.00000000000000 0.00000000000000 1.00000000000000 0.10000000000000 1.00000000000000 
8
1.00000000000000 0.00000000000000 0.30000000000000 0.00000000000000 0.00000000000000 1.00000000000000 0.70000000000000 1.00000000000000 
8
1.00000000000000 0.00000000000000 0.50000000000000 0.00000000000000 0.00000000000000 1.00000000000000 0.50000000000000 1.00000000000000 
8
1.00000000000000 0.00000000000000 0.90000000000000 0.00000000000000 0.00000000000000 1.00000000000000 0.10000000000000 1.00000000000000 
8
1.00000000000000 0.00000000000000 0.50000000000000 0.00000000000000 0.00000000000000 1.00000000000000 0.50000000000000 1.00000000000000 
8
1.00000000000000 0.00000000000000 0.70000000000000 0.00000000000000 0.00000000000000 1.00000000000000 0.30000000000000 1.00000000000000 
8
1.00000000000000 0.00000000000000 0.90000000000000 0.00000000000000 0.00000000000000 1.00000000000000 0.10000000000000 1.00000000000000 
8
1.00000000000000 0.00000000000000 0.90000000000000 0.00000000000000 0.00000000000000 1.00000000000000 0.10000000000000 1.00000000000000 
8
1.00000000000000 0.00000000000000 0.40000000000000 0.00000000000000 0.00000000000000 1.00000000000000 0.60000000000000 1.00000000000000 
8
1.00000000000000 0.00000000000000 0.90000000000000 0.00000000000000 0.00000000000000 1.00000000000000 0.10000000000000 1.00000000000000 
8
1.00000000000000 0.00000000000000 0.90000000000000 0.00000000000000 0.00000000000000 1.00000000000000 0.10000000000000 1.00000000000000 
8
1.00000000000000 0.00000000000000 0.75000000000000 0.00000000000000 0.00000000000000 1.00000000000000 0.25000000000000 1.00000000000000 
8
1.00000000000000 0.00000000000000 0.30000000000000 0.00000000000000 0.00000000000000 1.00000000000000 0.70000000000000 1.00000000000000 
8
1.00000000000000 0.00000000000000 0.90000000000000 0.00000000000000 0.00000000000000 1.00000000000000 0.10000000000000 1.00000000000000 
8
1.00000000000000 0.00000000000000 0.50000000000000 0.00000000000000 0.00000000000000 1.00000000000000 0.50000000000000 1.00000000000000 
8
1.00000000000000 0.00000000000000 0.90000000000000 0.00000000000000 0.00000000000000 1.00000000000000 0.10000000000000 1.00000000000000 
8
1.00000000000000 0.00000000000000 0.30000000000000 0.00000000000000 0.00000000000000 1.00000000000000 0.70000000000000 1.00000000000000 
8
1.00000000000000 0.00000000000000 0.50000000000000 0.00000000000000 0.00000000000000 1.00000000000000 0.50000000000000 1.00000000000000 
8
1.00000000000000 0.00000000000000 0.90000000000000 0.00000000000000 0.00000000000000 1.00000000000000 0.10000000000000 1.00000000000000 
8
1.00000000000000 0.00000000000000 0.90000000000000 0.00000000000000 0.00000000000000 1.00000000000000 0.10000000000000 1.00000000000000 
8
1.00000000000000 0.00000000000000 0.90000000000000 0.00000000000000 0.00000000000000 1.00000000000000 0.10000000000000 1.00000000000000 
8
1.00000000000000 0.00000000000000 0.90000000000000 0.00000000000000 0.00000000000000 1.00000000000000 0.10000000000000 1.00000000000000 
8
1.00000000000000 0.00000000000000 0.30000000000000 0.00000000000000 0.00000000000000 1.00000000000000 0.70000000000000 1.00000000000000 
8
1.00000000000000 0.00000000000000 0.90000000000000 0.00000000000000 0.00000000000000 1.00000000000000 0.10000000000000 1.00000000000000 
8
1.00000000000000 0.00000000000000 0.30000000000000 0.00000000000000 0.00000000000000 1.00000000000000 0.70000000000000 1.00000000000000 
8
1.00000000000000 0.00000000000000 0.50000000000000 0.00000000000000 0.00000000000000 1.00000000000000 0.50000000000000 1.00000000000000 
8
1.00000000000000 0.00000000000000 0.10000000000000 0.00000000000000 0.00000000000000 1.00000000000000 0.90000000000000 1.00000000000000 
8
1.00000000000000 0.00000000000000 0.90000000000000 0.00000000000000 0.00000000000000 1.00000000000000 0.10000000000000 1.00000000000000 
8
1.00000000000000 0.00000000000000 0.89000000000000 0.00000000000000 0.00000000000000 1.00000000000000 0.11000000000000 1.00000000000000 
8
1.00000000000000 0.00000000000000 0.90000000000000 0.00000000000000 0.00000000000000 1.00000000000000 0.10000000000000 1.00000000000000 
8
1.00000000000000 0.00000000000000 0.89000000000000 0.00000000000000 0.00000000000000 1.00000000000000 0.11000000000000 1.00000000000000 
8
1.00000000000000 0.00000000000000 0.09000000000000 0.00000000000000 0.00000000000000 1.00000000000000 0.91000000000000 1.00000000000000 
8
1.00000000000000 0.00000000000000 0.30000000000000 0.00000000000000 0.00000000000000 1.00000000000000 0.70000000000000 1.00000000000000 
8
1.00000000000000 0.00000000000000 0.40000000000000 0.00000000000000 0.00000000000000 1.00000000000000 0.60000000000000 1.00000000000000 
8
1.00000000000000 0.00000000000000 0.90000000000000 0.00000000000000 0.00000000000000 1.00000000000000 0.10000000000000 1.00000000000000 
4
0.97000000000000 0.00000000000000 0.03000000000000 1.00000000000000 
8
1.00000000000000 0.50000000000000 0.80000000000000 0.40000000000000 0.00000000000000 0.50000000000000 0.20000000000000 0.60000000000000 
8
1.00000000000000 0.00000000000000 0.50000000000000 0.00000000000000 0.00000000000000 1.00000000000000 0.50000000000000 1.00000000000000 
8
1.00000000000000 0.00000000000000 0.01000000000000 0.00000000000000 0.00000000000000 1.00000000000000 0.99000000000000 1.00000000000000 
8
1.00000000000000 0.00000000000000 0.50000000000000 0.00000000000000 0.00000000000000 1.00000000000000 0.50000000000000 1.00000000000000 
8
1.00000000000000 0.00000000000000 0.60000000000000 0.00000000000000 0.00000000000000 1.00000000000000 0.40000000000000 1.00000000000000 
8
1.00000000000000 0.00000000000000 0.50000000000000 0.00000000000000 0.00000000000000 1.00000000000000 0.50000000000000 1.00000000000000 
8
1.00000000000000 0.00000000000000 0.50000000000000 0.00000000000000 0.00000000000000 1.00000000000000 0.50000000000000 1.00000000000000 
4
0.97000000000000 0.00000000000000 0.03000000000000 1.00000000000000 
4
0.97000000000000 0.29100000000000 0.03000000000000 0.70900000000000 
4
1.00000000000000 0.00000000000000 0.00000000000000 1.00000000000000 
8
1.00000000000000 0.30000000000000 0.50000000000000 0.15000000000000 0.00000000000000 0.70000000000000 0.50000000000000 0.85000000000000 
4
0.97000000000000 0.00000000000000 0.03000000000000 1.00000000000000 
8
1.00000000000000 0.20000000000000 0.50000000000000 0.10000000000000 0.00000000000000 0.80000000000000 0.50000000000000 0.90000000000000 
8
1.00000000000000 0.00000000000000 0.50000000000000 0.00000000000000 0.00000000000000 1.00000000000000 0.50000000000000 1.00000000000000 
8
1.00000000000000 0.00000000000000 0.50000000000000 0.00000000000000 0.00000000000000 1.00000000000000 0.50000000000000 1.00000000000000 
8
1.00000000000000 0.00000000000000 0.05000000000000 0.00000000000000 0.00000000000000 1.00000000000000 0.95000000000000 1.00000000000000 
8
1.00000000000000 0.00000000000000 0.50000000000000 0.00000000000000 0.00000000000000 1.00000000000000 0.50000000000000 1.00000000000000 
8
1.00000000000000 0.00000000000000 0.50000000000000 0.00000000000000 0.00000000000000 1.00000000000000 0.50000000000000 1.00000000000000 
8
1.00000000000000 0.00000000000000 0.50000000000000 0.00000000000000 0.00000000000000 1.00000000000000 0.50000000000000 1.00000000000000 
8
1.00000000000000 0.00000000000000 0.10000000000000 0.00000000000000 0.00000000000000 1.00000000000000 0.90000000000000 1.00000000000000 
8
1.00000000000000 0.00000000000000 0.09000000000000 0.00000000000000 0.00000000000000 1.00000000000000 0.91000000000000 1.00000000000000 
8
1.00000000000000 0.00000000000000 0.50000000000000 0.00000000000000 0.00000000000000 1.00000000000000 0.50000000000000 1.00000000000000 
8
1.00000000000000 0.00000000000000 0.50000000000000 0.00000000000000 0.00000000000000 1.00000000000000 0.50000000000000 1.00000000000000 
8
1.00000000000000 0.00000000000000 0.50000000000000 0.00000000000000 0.00000000000000 1.00000000000000 0.50000000000000 1.00000000000000 
8
1.00000000000000 0.00000000000000 0.50000000000000 0.00000000000000 0.00000000000000 1.00000000000000 0.50000000000000 1.00000000000000 
8
1.00000000000000 0.00000000000000 0.20000000000000 0.00000000000000 0.00000000000000 1.00000000000000 0.80000000000000 1.00000000000000 
8
1.00000000000000 0.00000000000000 0.05000000000000 0.00000000000000 0.00000000000000 1.00000000000000 0.95000000000000 1.00000000000000 
8
1.00000000000000 0.00000000000000 0.50000000000000 0.00000000000000 0.00000000000000 1.00000000000000 0.50000000000000 1.00000000000000 
8
1.00000000000000 0.00000000000000 0.50000000000000 0.00000000000000 0.00000000000000 1.00000000000000 0.50000000000000 1.00000000000000 
8
1.00000000000000 0.00000000000000 0.05000000000000 0.00000000000000 0.00000000000000 1.00000000000000 0.95000000000000 1.00000000000000 
8
1.00000000000000 0.00000000000000 0.50000000000000 0.00000000000000 0.00000000000000 1.00000000000000 0.50000000000000 1.00000000000000 
8
1.00000000000000 0.00000000000000 0.50000000000000 0.00000000000000 0.00000000000000 1.00000000000000 0.50000000000000 1.00000000000000 
8
1.00000000000000 0.00000000000000 0.50000000000000 0.00000000000000 0.00000000000000 1.00000000000000 0.50000000000000 1.00000000000000 
8
1.00000000000000 0.00000000000000 0.10000000000000 0.00000000000000 0.00000000000000 1.00000000000000 0.90000000000000 1.00000000000000 
4
0.97000000000000 0.00000000000000 0.03000000000000 1.00000000000000 
4
0.97000000000000 0.48500000000000 0.03000000000000 0.51500000000000 
8
1.00000000000000 0.50000000000000 0.20000000000000 0.10000000000000 0.00000000000000 0.50000000000000 0.80000000000000 0.90000000000000 
8
1.00000000000000 0.00000000000000 0.50000000000000 0.00000000000000 0.00000000000000 1.00000000000000 0.50000000000000 1.00000000000000 
8
1.00000000000000 0.00000000000000 0.50000000000000 0.00000000000000 0.00000000000000 1.00000000000000 0.50000000000000 1.00000000000000 
8
1.00000000000000 0.00000000000000 0.89000000000000 0.00000000000000 0.00000000000000 1.00000000000000 0.11000000000000 1.00000000000000 
8
1.00000000000000 0.00000000000000 0.50000000000000 0.00000000000000 0.00000000000000 1.00000000000000 0.50000000000000 1.00000000000000 
8
1.00000000000000 0.00000000000000 0.50000000000000 0.00000000000000 0.00000000000000 1.00000000000000 0.50000000000000 1.00000000000000 
8
1.00000000000000 0.00000000000000 0.10000000000000 0.00000000000000 0.00000000000000 1.00000000000000 0.90000000000000 1.00000000000000 
8
1.00000000000000 0.00000000000000 0.50000000000000 0.00000000000000 0.00000000000000 1.00000000000000 0.50000000000000 1.00000000000000 
8
1.00000000000000 0.00000000000000 0.89000000000000 0.00000000000000 0.00000000000000 1.00000000000000 0.11000000000000 1.00000000000000 
8
1.00000000000000 0.00000000000000 0.90000000000000 0.00000000000000 0.00000000000000 1.00000000000000 0.10000000000000 1.00000000000000 
8
1.00000000000000 0.00000000000000 0.50000000000000 0.00000000000000 0.00000000000000 1.00000000000000 0.50000000000000 1.00000000000000 
8
1.00000000000000 0.00000000000000 0.00000000000000 0.00000000000000 0.00000000000000 1.00000000000000 1.00000000000000 1.00000000000000 
8
1.00000000000000 0.00000000000000 0.50000000000000 0.00000000000000 0.00000000000000 1.00000000000000 0.50000000000000 1.00000000000000 
8
1.00000000000000 0.00000000000000 0.50000000000000 0.00000000000000 0.00000000000000 1.00000000000000 0.50000000000000 1.00000000000000 
8
1.00000000000000 0.00000000000000 0.50000000000000 0.00000000000000 0.00000000000000 1.00000000000000 0.50000000000000 1.00000000000000 
8
1.00000000000000 0.00000000000000 0.89000000000000 0.00000000000000 0.00000000000000 1.00000000000000 0.11000000000000 1.00000000000000 
8
1.00000000000000 0.00000000000000 0.89000000000000 0.00000000000000 0.00000000000000 1.00000000000000 0.11000000000000 1.00000000000000 
8
1.00000000000000 0.00000000000000 0.50000000000000 0.00000000000000 0.00000000000000 1.00000000000000 0.50000000000000 1.00000000000000 
8
1.00000000000000 0.00000000000000 0.50000000000000 0.00000000000000 0.00000000000000 1.00000000000000 0.50000000000000 1.00000000000000 
8
1.00000000000000 0.00000000000000 0.01000000000000 0.00000000000000 0.00000000000000 1.00000000000000 0.99000000000000 1.00000000000000 
8
1.00000000000000 0.00000000000000 0.50000000000000 0.00000000000000 0.00000000000000 1.00000000000000 0.50000000000000 1.00000000000000 
8
1.00000000000000 0.00000000000000 0.30000000000000 0.00000000000000 0.00000000000000 1.00000000000000 0.70000000000000 1.00000000000000 
8
1.00000000000000 0.00000000000000 0.50000000000000 0.00000000000000 0.00000000000000 1.00000000000000 0.50000000000000 1.00000000000000 
8
1.00000000000000 0.00000000000000 0.10000000000000 0.00000000000000 0.00000000000000 1.00000000000000 0.90000000000000 1.00000000000000 
8
1.00000000000000 0.00000000000000 0.50000000000000 0.00000000000000 0.00000000000000 1.00000000000000 0.50000000000000 1.00000000000000 
8
1.00000000000000 0.00000000000000 0.09000000000000 0.00000000000000 0.00000000000000 1.00000000000000 0.91000000000000 1.00000000000000 
8
1.00000000000000 0.00000000000000 0.50000000000000 0.00000000000000 0.00000000000000 1.00000000000000 0.50000000000000 1.00000000000000 
8
1.00000000000000 0.00000000000000 0.89000000000000 0.00000000000000 0.00000000000000 1.00000000000000 0.11000000000000 1.00000000000000 
8
1.00000000000000 0.00000000000000 0.50000000000000 0.00000000000000 0.00000000000000 1.00000000000000 0.50000000000000 1.00000000000000 
8
1.00000000000000 0.00000000000000 0.00000000000000 0.00000000000000 0.00000000000000 1.00000000000000 1.00000000000000 1.00000000000000 
4
0.97000000000000 0.00000000000000 0.03000000000000 1.00000000000000 
8
1.00000000000000 0.50000000000000 0.80000000000000 0.40000000000000 0.00000000000000 0.50000000000000 0.20000000000000 0.60000000000000 
8
1.00000000000000 0.00000000000000 0.90000000000000 0.00000000000000 0.00000000000000 1.00000000000000 0.10000000000000 1.00000000000000 
8
1.00000000000000 0.00000000000000 0.01000000000000 0.00000000000000 0.00000000000000 1.00000000000000 0.99000000000000 1.00000000000000 
8
1.00000000000000 0.00000000000000 0.60000000000000 0.00000000000000 0.00000000000000 1.00000000000000 0.40000000000000 1.00000000000000 
8
1.00000000000000 0.00000000000000 0.40000000000000 0.00000000000000 0.00000000000000 1.00000000000000 0.60000000000000 1.00000000000000 
8
1.00000000000000 0.00000000000000 0.50000000000000 0.00000000000000 0.00000000000000 1.00000000000000 0.50000000000000 1.00000000000000 
8
1.00000000000000 0.00000000000000 0.50000000000000 0.00000000000000 0.00000000000000 1.00000000000000 0.50000000000000 1.00000000000000 
8
1.00000000000000 0.00000000000000 0.10000000000000 0.00000000000000 0.00000000000000 1.00000000000000 0.90000000000000 1.00000000000000 
8
1.00000000000000 0.00000000000000 0.60000000000000 0.00000000000000 0.00000000000000 1.00000000000000 0.40000000000000 1.00000000000000 
8
1.00000000000000 0.00000000000000 0.50000000000000 0.00000000000000 0.00000000000000 1.00000000000000 0.50000000000000 1.00000000000000 
8
1.00000000000000 0.00000000000000 0.10000000000000 0.00000000000000 0.00000000000000 1.00000000000000 0.90000000000000 1.00000000000000 
8
1.00000000000000 0.00000000000000 0.50000000000000 0.00000000000000 0.00000000000000 1.00000000000000 0.50000000000000 1.00000000000000 
8
1.00000000000000 0.00000000000000 0.50000000000000 0.00000000000000 0.00000000000000 1.00000000000000 0.50000000000000 1.00000000000000 
8
1.00000000000000 0.00000000000000 0.50000000000000 0.00000000000000 0.00000000000000 1.00000000000000 0.50000000000000 1.00000000000000 
8
1.00000000000000 0.00000000000000 0.75000000000000 0.00000000000000 0.00000000000000 1.00000000000000 0.25000000000000 1.00000000000000 
8
1.00000000000000 0.00000000000000 0.10000000000000 0.00000000000000 0.00000000000000 1.00000000000000 0.90000000000000 1.00000000000000 
8
1.00000000000000 0.00000000000000 0.50000000000000 0.00000000000000 0.00000000000000 1.00000000000000 0.50000000000000 1.00000000000000 
8
1.00000000000000 0.00000000000000 0.50000000000000 0.00000000000000 0.00000000000000 1.00000000000000 0.50000000000000 1.00000000000000 
8
1.00000000000000 0.00000000000000 0.05000000000000 0.00000000000000 0.00000000000000 1.00000000000000 0.95000000000000 1.00000000000000 
8
1.00000000000000 0.00000000000000 0.20000000000000 0.00000000000000 0.00000000000000 1.00000000000000 0.80000000000000 1.00000000000000 
8
1.00000000000000 0.00000000000000 0.50000000000000 0.00000000000000 0.00000000000000 1.00000000000000 0.50000000000000 1.00000000000000 
8
1.00000000000000 0.00000000000000 0.50000000000000 0.00000000000000 0.00000000000000 1.00000000000000 0.50000000000000 1.00000000000000 
8
1.00000000000000 0.00000000000000 0.20000000000000 0.00000000000000 0.00000000000000 1.00000000000000 0.80000000000000 1.00000000000000 
8
1.00000000000000 0.00000000000000 0.10000000000000 0.00000000000000 0.00000000000000 1.00000000000000 0.90000000000000 1.00000000000000 
8
1.00000000000000 0.00000000000000 0.50000000000000 0.00000000000000 0.00000000000000 1.00000000000000 0.50000000000000 1.00000000000000 
8
1.00000000000000 0.00000000000000 0.50000000000000 0.00000000000000 0.00000000000000 1.00000000000000 0.50000000000000 1.00000000000000 
8
1.00000000000000 0.00000000000000 0.05000000000000 0.00000000000000 0.00000000000000 1.00000000000000 0.95000000000000 1.00000000000000 
8
1.00000000000000 0.00000000000000 0.30000000000000 0.00000000000000 0.00000000000000 1.00000000000000 0.70000000000000 1.00000000000000 
8
1.00000000000000 0.00000000000000 0.50000000000000 0.00000000000000 0.00000000000000 1.00000000000000 0.50000000000000 1.00000000000000 
8
1.00000000000000 0.00000000000000 0.01000000000000 0.00000000000000 0.00000000000000 1.00000000000000 0.99000000000000 1.00000000000000 
8
1.00000000000000 0.00000000000000 0.50000000000000 0.00000000000000 0.00000000000000 1.00000000000000 0.50000000000000 1.00000000000000 
8
1.00000000000000 0.00000000000000 0.50000000000000 0.00000000000000 0.00000000000000 1.00000000000000 0.50000000000000 1.00000000000000 
8
1.00000000000000 0.00000000000000 0.50000000000000 0.00000000000000 0.00000000000000 1.00000000000000 0.50000000000000 1.00000000000000 
8
1.00000000000000 0.00000000000000 0.10000000000000 0.00000000000000 0.00000000000000 1.00000000000000 0.90000000000000 1.00000000000000 
4
0.97000000000000 0.00000000000000 0.03000000000000 1.00000000000000 
2
0.99950000000000 0.00050000000000 
2
0.99968000000000 0.00032000000000 
2
0.99990000000000 0.00010000000000 
2
0.99990000000000 0.00010000000000 
2
0.99990000000000 0.00010000000000 
2
0.99975000000000 0.00025000000000 
2
0.99810000000000 0.00190000000000 
2
0.99990000000000 0.00010000000000 
2
0.99950000000000 0.00050000000000 
2
0.99999800000000 0.00000200000000 
2
0.99990000000000 0.00010000000000 
2
0.99850000000000 0.00150000000000 
2
0.99994000000000 0.00006000000000 
2
0.99960000000000 0.00040000000000 
2
0.99990000000000 0.00010000000000 
2
0.99990000000000 0.00010000000000 
2
0.99999000000000 0.00001000000000 
2
0.99992000000000 0.00008000000000 
2
0.99999800000000 0.00000200000000 
2
0.99999900000000 0.00000100000000 
2
0.99990000000000 0.00010000000000 
2
0.99996000000000 0.00004000000000 
2
0.99990000000000 0.00010000000000 
2
0.99982000000000 0.00018000000000 
2
0.99990000000000 0.00010000000000 
2
0.99996000000000 0.00004000000000 
2
0.99940000000000 0.00060000000000 
2
0.99999000000000 0.00001000000000 
2
0.99950000000000 0.00050000000000 
2
0.99990000000000 0.00010000000000 
2
0.99910000000000 0.00090000000000 
2
0.99992000000000 0.00008000000000 
2
0.99990000000000 0.00010000000000 
2
0.99989000000000 0.00011000000000 
2
0.99990000000000 0.00010000000000 
2
0.99991000000000 0.00009000000000 
2
0.99989000000000 0.00011000000000 
2
0.99990000000000 0.00010000000000 
2
0.99960000000000 0.00040000000000 
2
0.99996000000000 0.00004000000000 
2
0.99995000000000 0.00005000000000 
2
0.99991000000000 0.00009000000000 
2
0.99997300000000 0.00002700000000 
2
0.99999940000000 0.00000060000000 
2
0.99990000000000 0.00010000000000 
2
0.99900000000000 0.00100000000000 
2
0.99991000000000 0.00009000000000 
2
0.99980000000000 0.00020000000000 
2
0.99990000000000 0.00010000000000 
2
0.99950000000000 0.00050000000000 
2
0.99970000000000 0.00030000000000 
2
0.99922000000000 0.00078000000000 
2
0.99980000000000 0.00020000000000 
2
0.99993000000000 0.00007000000000 
2
0.99995000000000 0.00005000000000 
2
0.99999950000000 0.00000050000000 
2
0.99998000000000 0.00002000000000 
2
0.99990000000000 0.00010000000000 
2
0.99990000000000 0.00010000000000 
2
0.99996000000000 0.00004000000000 
2
0.99980000000000 0.00020000000000 
2
0.99980000000000 0.00020000000000 
2
0.99990000000000 0.00010000000000 
2
0.99960000000000 0.00040000000000 
2
0.99990000000000 0.00010000000000 
2
0.99997709000000 0.00002291000000 
2
0.99950000000000 0.00050000000000 
2
0.99910000000000 0.00090000000000 
2
0.99999900000000 0.00000100000000 
2
0.99850000000000 0.00150000000000 
2
0.99999980000000 0.00000020000000 
2
0.99995000000000 0.00005000000000 
2
0.99950000000000 0.00050000000000 
2
0.99990000000000 0.00010000000000 
2
0.99990000000000 0.00010000000000 
2
0.99999938000000 0.00000062000000 
2
0.99950000000000 0.00050000000000 
2
0.99999988000000 0.00000012000000 
2
0.99900000000000 0.00100000000000 
2
0.99960000000000 0.00040000000000 
2
0.99700000000000 0.00300000000000 
2
0.99992000000000 0.00008000000000 
2
0.99989000000000 0.00011000000000 
2
0.99999718000000 0.00000282000000 
2
0.99999000000000 0.00001000000000 
2
0.99950000000000 0.00050000000000 
2
0.99990000000000 0.00010000000000 
2
0.99990000000000 0.00010000000000 
2
0.99999000000000 0.00001000000000 
2
0.99999984000000 0.00000016000000 
2
0.99940000000000 0.00060000000000 
2
0.99990668000000 0.00009332000000 
2
0.99990000000000 0.00010000000000 
2
0.99940000000000 0.00060000000000 
2
0.99989000000000 0.00011000000000 
2
0.99990000000000 0.00010000000000 
2
0.99996880000000 0.00003120000000 
2
0.99999200000000 0.00000800000000 
2
0.99999000000000 0.00001000000000 
2
0.99999986000000 0.00000014000000 
2
0.99990000000000 0.00010000000000 
2
0.99998000000000 0.00002000000000 
2
0.99990000000000 0.00010000000000 
2
0.99950000000000 0.00050000000000 
2
0.99990000000000 0.00010000000000 
2
0.99991000000000 0.00009000000000 
2
0.99991000000000 0.00009000000000 
2
0.99990000000000 0.00010000000000 
2
0.99997000000000 0.00003000000000 
2
0.99994000000000 0.00006000000000 
2
0.99950000000000 0.00050000000000 
2
0.99980000000000 0.00020000000000 
2
0.99800000000000 0.00200000000000 
2
0.99790000000000 0.00210000000000 
2
0.99980000000000 0.00020000000000 
2
0.99999000000000 0.00001000000000 
2
0.99990000000000 0.00010000000000 
2
0.99960000000000 0.00040000000000 
2
0.99950000000000 0.00050000000000 
2
0.99998000000000 0.00002000000000 
2
0.99990000000000 0.00010000000000 
2
0.99995000000000 0.00005000000000 
2
0.99999900000000 0.00000100000000 
2
0.99970000000000 0.00030000000000 
2
0.99950000000000 0.00050000000000 
2
0.99990000000000 0.00010000000000 
2
0.99950000000000 0.00050000000000 
2
0.99940000000000 0.00060000000000 
2
0.99980000000000 0.00020000000000 
2
0.99990000000000 0.00010000000000 
2
0.99900000000000 0.00100000000000 
2
0.99990000000000 0.00010000000000 
2
0.99996000000000 0.00004000000000
2
0.5 0.5 
